NAME: tsp20-1
TYPE: TSP
DIMENSION: 20
EDGE_WEIGHT_TYPE: EUC_2D
NODE_COORD_SECTION
0 84 9
1 40 69
2 66 84
3 28 60
4 16 51
5 5 4
6 57 16
7 25 72
8 59 31
9 86 68
10 23 34
11 1 36
12 50 20
13 52 49
14 2 47
15 2 34
16 39 0
17 80 18
18 87 37
19 25 25
EOF